Minimize
  obj: x0 + x1 + x2 + x3 + x4 + x5 + x6

Subject To
  c0: x2 + x3 + x6 = 33
  c1: x1 + x4 + x5 + x6 = 46
  c2: x1 + x2 + x3 + x5 = 37
  c3: x1 + x4 + x5 = 28
  c4: x0 + x2 + x3 = 15
  c5: x0 + x2 + x4 + x5 = 21
  c6: x0 + x1 + x3 + x4 + x5 = 41

Bounds
  x0 >= 0
  x1 >= 0
  x2 >= 0
  x3 >= 0
  x4 >= 0
  x5 >= 0
  x6 >= 0

Generals
  x0 x1 x2 x3 x4 x5 x6

End
